<number of tasks>
50

<cycle time>
1000

<order strength>
0.204


<task times>
1 90
2 485
3 597
4 130
5 40
6 139
7 214
8 271
9 54
10 265
11 513
12 520
13 55
14 248
15 300
16 69
17 354
18 159
19 150
20 59
21 566
22 166
23 170
24 115
25 161
26 116
27 203
28 99
29 185
30 45
31 110
32 43
33 119
34 153
35 545
36 98
37 586
38 242
39 26
40 143
41 281
42 227
43 501
44 566
45 223
46 179
47 137
48 575
49 262
50 193

<precedence relations>
1,10
1,13
3,38
5,8
5,12
5,24
5,40
6,9
6,11
8,16
10,14
10,15
10,17
11,17
12,42
13,31
14,21
15,20
15,36
16,18
16,19
16,22
16,23
19,27
19,29
19,43
20,24
21,25
21,28
22,28
22,30
23,26
23,33
24,32
25,31
25,33
26,35
26,36
27,45
27,47
28,34
28,37
30,32
31,40
32,39
32,41
34,42
35,43
36,38
38,45
38,47
40,44
40,48
40,49
43,46
43,50

<end>
